VRPTWMS/instances/mip/fuel/Comparison/N4-C_DV100-C_SV30_F6_2_No_1.log

Gurobi 6.0.4 (win64) logging started 06/21/15 19:05:31

Read LP format model from file C:\MT\repository\VRPTWMS\instances\mip\fuel\N4-C_DV100-C_SV30_F6_2_No_1.lp
Reading time = 0.00 seconds
(null): 129 rows, 72 columns, 447 nonzeros
Optimize a model with 129 rows, 72 columns and 447 nonzeros
Model has 64 quadratic constraints
Coefficient statistics:
  Matrix range    [1e+00, 1e+06]
  Objective range [8e+04, 1e+07]
  Bounds range    [1e+00, 1e+06]
  RHS range       [1e+00, 1e+06]
Presolve removed 17 rows and 10 columns
Presolve time: 0.01s
Presolved: 216 rows, 114 columns, 1004 nonzeros
Variable types: 52 continuous, 62 integer (44 binary)
Found heuristic solution: objective 4.139960e+07
Found heuristic solution: objective 2.123210e+07

Root relaxation: objective 5.208017e+06, 31 iterations, 0.00 seconds

    Nodes    |    Current Node    |     Objective Bounds      |     Work
 Expl Unexpl |  Obj  Depth IntInf | Incumbent    BestBd   Gap | It/Node Time

     0     0 5208016.90    0   20 2.1232e+07 5208016.90  75.5%     -    0s
     0     0 1.0965e+07    0    6 2.1232e+07 1.0965e+07  48.4%     -    0s
H    0     0                    2.109670e+07 1.0965e+07  48.0%     -    0s
     0     0 1.1071e+07    0    9 2.1097e+07 1.1071e+07  47.5%     -    0s
     0     0 1.1071e+07    0   10 2.1097e+07 1.1071e+07  47.5%     -    0s
     0     0 1.1071e+07    0   10 2.1097e+07 1.1071e+07  47.5%     -    0s
H    0     0                    2.098270e+07 1.1071e+07  47.2%     -    0s
     0     0 1.1182e+07    0   16 2.0983e+07 1.1182e+07  46.7%     -    0s
     0     0 1.5988e+07    0    7 2.0983e+07 1.5988e+07  23.8%     -    0s
*    0     0               0    2.091610e+07 2.0916e+07  0.00%     -    0s

Cutting planes:
  Cover: 2
  Implied bound: 1
  Clique: 6
  GUB cover: 1

Explored 0 nodes (147 simplex iterations) in 0.03 seconds
Thread count was 2 (of 4 available processors)

Optimal solution found (tolerance 1.00e-04)
Best objective 2.091610000000e+07, best bound 2.091610000000e+07, gap 0.0%
k_c1	960000.0
k_c2	40000.0
k_c3	159999.99999999988
k_c4	129999.9999999999
k_dN	-0.0
o_1	0.0
o_2	0.0
o_3	0.0
o_4	0.0
p_1	0.0
p_2	0.0
p_3	0.0
p_4	0.0
phi_c1	48547.0
phi_c2	15447.0
phi_c3	30299.0
phi_c4	24907.0
phi_d0	60000.0
phi_dN	-0.0
tauD_c1	650000.0
tauD_c2	650000.0
tauD_c3	30200.0
tauD_c4	450000.0
tauD_d0	-0.0
tauD_dN	1000000.0
tauS_c1	837225.0
tauS_c2	677500.0
tauS_c3	889800.0
tauS_c4	875775.0
tauS_d0	-0.0
tauS_dN	1000000.0
x_c1_dN	1.0
x_c2_dN	1.0
x_c3_c4	1.0
x_c4_c2	1.0
x_d0_c1	1.0
x_d0_c3	1.0
